c CNF file corresponding to a (partial) station packing problem.
p cnf 2438 229
1 2 3 4 5 6 7 8 9 10 11 12 13 14 0
-1 -2 0
-1 -3 0
-1 -4 0
-1 -5 0
-1 -6 0
-1 -7 0
-1 -8 0
-1 -9 0
-1 -10 0
-1 -11 0
-1 -12 0
-1 -13 0
-1 -14 0
-2 -3 0
-2 -4 0
-2 -5 0
-2 -6 0
-2 -7 0
-2 -8 0
-2 -9 0
-2 -10 0
-2 -11 0
-2 -12 0
-2 -13 0
-2 -14 0
-3 -4 0
-3 -5 0
-3 -6 0
-3 -7 0
-3 -8 0
-3 -9 0
-3 -10 0
-3 -11 0
-3 -12 0
-3 -13 0
-3 -14 0
-4 -5 0
-4 -6 0
-4 -7 0
-4 -8 0
-4 -9 0
-4 -10 0
-4 -11 0
-4 -12 0
-4 -13 0
-4 -14 0
-5 -6 0
-5 -7 0
-5 -8 0
-5 -9 0
-5 -10 0
-5 -11 0
-5 -12 0
-5 -13 0
-5 -14 0
-6 -7 0
-6 -8 0
-6 -9 0
-6 -10 0
-6 -11 0
-6 -12 0
-6 -13 0
-6 -14 0
-7 -8 0
-7 -9 0
-7 -10 0
-7 -11 0
-7 -12 0
-7 -13 0
-7 -14 0
-8 -9 0
-8 -10 0
-8 -11 0
-8 -12 0
-8 -13 0
-8 -14 0
-9 -10 0
-9 -11 0
-9 -12 0
-9 -13 0
-9 -14 0
-10 -11 0
-10 -12 0
-10 -13 0
-10 -14 0
-11 -12 0
-11 -13 0
-11 -14 0
-12 -13 0
-12 -14 0
-13 -14 0
2422 2423 2424 2425 2426 2427 2428 2429 2430 2431 2432 2433 2434 2435 2436 2437 2438 0
-2422 -2423 0
-2422 -2424 0
-2422 -2425 0
-2422 -2426 0
-2422 -2427 0
-2422 -2428 0
-2422 -2429 0
-2422 -2430 0
-2422 -2431 0
-2422 -2432 0
-2422 -2433 0
-2422 -2434 0
-2422 -2435 0
-2422 -2436 0
-2422 -2437 0
-2422 -2438 0
-2423 -2424 0
-2423 -2425 0
-2423 -2426 0
-2423 -2427 0
-2423 -2428 0
-2423 -2429 0
-2423 -2430 0
-2423 -2431 0
-2423 -2432 0
-2423 -2433 0
-2423 -2434 0
-2423 -2435 0
-2423 -2436 0
-2423 -2437 0
-2423 -2438 0
-2424 -2425 0
-2424 -2426 0
-2424 -2427 0
-2424 -2428 0
-2424 -2429 0
-2424 -2430 0
-2424 -2431 0
-2424 -2432 0
-2424 -2433 0
-2424 -2434 0
-2424 -2435 0
-2424 -2436 0
-2424 -2437 0
-2424 -2438 0
-2425 -2426 0
-2425 -2427 0
-2425 -2428 0
-2425 -2429 0
-2425 -2430 0
-2425 -2431 0
-2425 -2432 0
-2425 -2433 0
-2425 -2434 0
-2425 -2435 0
-2425 -2436 0
-2425 -2437 0
-2425 -2438 0
-2426 -2427 0
-2426 -2428 0
-2426 -2429 0
-2426 -2430 0
-2426 -2431 0
-2426 -2432 0
-2426 -2433 0
-2426 -2434 0
-2426 -2435 0
-2426 -2436 0
-2426 -2437 0
-2426 -2438 0
-2427 -2428 0
-2427 -2429 0
-2427 -2430 0
-2427 -2431 0
-2427 -2432 0
-2427 -2433 0
-2427 -2434 0
-2427 -2435 0
-2427 -2436 0
-2427 -2437 0
-2427 -2438 0
-2428 -2429 0
-2428 -2430 0
-2428 -2431 0
-2428 -2432 0
-2428 -2433 0
-2428 -2434 0
-2428 -2435 0
-2428 -2436 0
-2428 -2437 0
-2428 -2438 0
-2429 -2430 0
-2429 -2431 0
-2429 -2432 0
-2429 -2433 0
-2429 -2434 0
-2429 -2435 0
-2429 -2436 0
-2429 -2437 0
-2429 -2438 0
-2430 -2431 0
-2430 -2432 0
-2430 -2433 0
-2430 -2434 0
-2430 -2435 0
-2430 -2436 0
-2430 -2437 0
-2430 -2438 0
-2431 -2432 0
-2431 -2433 0
-2431 -2434 0
-2431 -2435 0
-2431 -2436 0
-2431 -2437 0
-2431 -2438 0
-2432 -2433 0
-2432 -2434 0
-2432 -2435 0
-2432 -2436 0
-2432 -2437 0
-2432 -2438 0
-2433 -2434 0
-2433 -2435 0
-2433 -2436 0
-2433 -2437 0
-2433 -2438 0
-2434 -2435 0
-2434 -2436 0
-2434 -2437 0
-2434 -2438 0
-2435 -2436 0
-2435 -2437 0
-2435 -2438 0
-2436 -2437 0
-2436 -2438 0
-2437 -2438 0
